0
Node Left Objective IInf Best_Integer Best_Bound ItCnt Gap
0+ 0 nan nan 360.0000 -360.0000 nan 200.00%
0 0 33.3849 18 360.0000 33.3849 115 90.73%
0+ 0 nan nan 96.7438 33.3849 nan 65.49%
0 0 33.9380 22 96.7438 Cuts:14 141 64.92%
0+ 0 nan nan 72.1509 33.9380 nan 52.96%
0 0 35.6450 22 72.1509 Fract:18 161 50.60%
0 0 36.2074 22 72.1509 Fract:19 182 49.82%
0 0 36.3481 26 72.1509 Fract:13 198 49.62%
0 0 36.4195 26 72.1509 Fract:7 212 49.52%
0 0 36.5199 27 72.1509 Fract:3 217 49.38%
0+ 0 nan nan 61.4802 36.5199 nan 40.60%
0+ 0 nan nan 59.5451 36.5199 nan 38.67%
0 2 36.5199 27 59.5451 36.6171 217 38.51%
CPXPARAM_MIP_Cuts_Gomory-Disjunctive-MIRCut:Gomory 0
CPXPARAM_MIP_Cuts_Gomory-Disjunctive-MIRCut:Disjunctive 20
CPXPARAM_MIP_Cuts_Gomory-Disjunctive-MIRCut:MIRCut 0
1
Node Left Objective IInf Best_Integer Best_Bound ItCnt Gap
0+ 0 nan nan 360.0000 -360.0000 nan 200.00%
0 0 -0.0000 24 360.0000 -0.0000 121 100.00%
0+ 0 nan nan 32.3215 0.0000 nan 100.00%
0 2 0.0000 19 32.3215 0.0000 121 100.00%
CPXPARAM_MIP_Cuts_Gomory-Disjunctive-MIRCut:Gomory 0
CPXPARAM_MIP_Cuts_Gomory-Disjunctive-MIRCut:Disjunctive 0
CPXPARAM_MIP_Cuts_Gomory-Disjunctive-MIRCut:MIRCut 0
2
Node Left Objective IInf Best_Integer Best_Bound ItCnt Gap
0+ 0 nan nan 450.0000 -450.0000 nan 200.00%
0 0 24.3849 16 450.0000 24.3849 114 94.58%
0+ 0 nan nan 77.4880 24.3849 nan 68.53%
0 0 25.0306 24 77.4880 Fract:13 146 67.70%
0+ 0 nan nan 62.5858 25.0306 nan 60.01%
0 0 25.4968 23 62.5858 Fract:6 155 59.26%
0+ 0 nan nan 62.3744 25.4968 nan 59.12%
0 0 25.6021 25 62.3744 Fract:7 163 58.95%
0 0 25.7455 26 62.3744 Fract:5 172 58.72%
0 0 26.0471 21 62.3744 Fract:3 191 58.24%
0+ 0 nan nan 53.7654 26.0471 nan 51.55%
0 0 26.1054 24 53.7654 Fract:2 197 51.45%
0 0 26.1358 24 53.7654 Fract:3 201 51.39%
0+ 0 nan nan 46.9549 26.1358 nan 44.34%
0 2 26.1358 24 46.9549 26.3414 201 43.90%
CPXPARAM_MIP_Cuts_Gomory-Disjunctive-MIRCut:Gomory 0
CPXPARAM_MIP_Cuts_Gomory-Disjunctive-MIRCut:Disjunctive 13
CPXPARAM_MIP_Cuts_Gomory-Disjunctive-MIRCut:MIRCut 0
3
Node Left Objective IInf Best_Integer Best_Bound ItCnt Gap
0+ 0 nan nan 330.0000 -330.0000 nan 200.00%
0 0 -0.0000 24 330.0000 -0.0000 119 100.00%
0+ 0 nan nan 55.2731 0.0000 nan 100.00%
0 0 0.0000 20 55.2731 Fract:3 149 100.00%
0 0 0.0000 22 55.2731 Fract:17 191 100.00%
0+ 0 nan nan 43.9397 0.0000 nan 100.00%
0+ 0 nan nan 32.7871 0.0000 nan 100.00%
0+ 0 nan nan 28.3405 0.0000 nan 100.00%
0+ 0 nan nan 21.5689 0.0000 nan 100.00%
0 2 0.0000 19 21.5689 0.0000 191 100.00%
CPXPARAM_MIP_Cuts_Gomory-Disjunctive-MIRCut:Gomory 0
CPXPARAM_MIP_Cuts_Gomory-Disjunctive-MIRCut:Disjunctive 2
CPXPARAM_MIP_Cuts_Gomory-Disjunctive-MIRCut:MIRCut 0
4
Node Left Objective IInf Best_Integer Best_Bound ItCnt Gap
0+ 0 nan nan 360.0000 -360.0000 nan 200.00%
0 0 43.8454 15 360.0000 43.8454 120 87.82%
0+ 0 nan nan 75.9975 43.8454 nan 42.31%
0 0 43.9070 21 75.9975 Fract:9 148 42.23%
0+ 0 nan nan 75.3543 43.9070 nan 41.73%
0 0 44.5288 24 75.3543 Fract:16 177 40.91%
0+ 0 nan nan 75.3199 44.5288 nan 40.88%
0 0 44.7172 32 75.3199 Fract:23 207 40.63%
0 0 44.8705 30 75.3199 Fract:14 222 40.43%
0 0 44.9075 32 75.3199 Fract:24 240 40.38%
0 0 44.9273 33 75.3199 Fract:1 242 40.35%
0+ 0 nan nan 57.5530 44.9273 nan 21.94%
0 2 44.9273 33 57.5530 44.9592 242 21.88%
CPXPARAM_MIP_Cuts_Gomory-Disjunctive-MIRCut:Gomory 0
CPXPARAM_MIP_Cuts_Gomory-Disjunctive-MIRCut:Disjunctive 22
CPXPARAM_MIP_Cuts_Gomory-Disjunctive-MIRCut:MIRCut 0
5
Node Left Objective IInf Best_Integer Best_Bound ItCnt Gap
0+ 0 nan nan 390.0000 -390.0000 nan 200.00%
0 0 0.0000 25 390.0000 0.0000 141 100.00%
0+ 0 nan nan 28.0320 0.0000 nan 100.00%
0 0 0.0000 20 28.0320 Fract:2 148 100.00%
0 0 0.0000 19 28.0320 Fract:13 164 100.00%
0+ 0 nan nan 22.5211 0.0000 nan 100.00%
0 0 0.0000 20 22.5211 Fract:17 186 100.00%
0+ 0 nan nan 19.1376 0.0000 nan 100.00%
0 2 0.0000 20 19.1376 0.0000 186 100.00%
CPXPARAM_MIP_Cuts_Gomory-Disjunctive-MIRCut:Gomory 0
CPXPARAM_MIP_Cuts_Gomory-Disjunctive-MIRCut:Disjunctive 2
CPXPARAM_MIP_Cuts_Gomory-Disjunctive-MIRCut:MIRCut 0
6
Node Left Objective IInf Best_Integer Best_Bound ItCnt Gap
0+ 0 nan nan 360.0000 -360.0000 nan 200.00%
0+ 0 nan nan 70.1893 -360.0000 nan 612.90%
0 0 43.8454 11 70.1893 43.8454 108 37.53%
0+ 0 nan nan 51.9567 43.8454 nan 15.61%
0 0 43.8454 13 51.9567 Fract:8 130 15.61%
0 0 44.0962 17 51.9567 Cuts:8 163 15.13%
0 0 44.3379 22 51.9567 Cuts:5 171 14.66%
0 0 44.4072 22 51.9567 Fract:4 179 14.53%
0 0 44.5861 23 51.9567 Fract:5 184 14.19%
0 0 44.6416 23 51.9567 Fract:3 188 14.08%
0 0 44.6936 23 51.9567 Fract:2 190 13.98%
0 2 44.8743 10 51.9567 45.0661 190 13.26%
CPXPARAM_MIP_Cuts_Gomory-Disjunctive-MIRCut:Gomory 0
CPXPARAM_MIP_Cuts_Gomory-Disjunctive-MIRCut:Disjunctive 16
CPXPARAM_MIP_Cuts_Gomory-Disjunctive-MIRCut:MIRCut 0
7
Node Left Objective IInf Best_Integer Best_Bound ItCnt Gap
0+ 0 nan nan 390.0000 -390.0000 nan 200.00%
0+ 0 nan nan 68.7303 -390.0000 nan 667.44%
0 0 -0.0000 21 68.7303 -0.0000 127 100.00%
0+ 0 nan nan 20.8747 0.0000 nan 100.00%
0+ 0 nan nan 12.4128 0.0000 nan 100.00%
0+ 0 nan nan 11.8788 0.0000 nan 100.00%
0 2 0.0000 14 11.8788 0.0000 127 100.00%
CPXPARAM_MIP_Cuts_Gomory-Disjunctive-MIRCut:Gomory 0
CPXPARAM_MIP_Cuts_Gomory-Disjunctive-MIRCut:Disjunctive 0
CPXPARAM_MIP_Cuts_Gomory-Disjunctive-MIRCut:MIRCut 0
8
Node Left Objective IInf Best_Integer Best_Bound ItCnt Gap
0+ 0 nan nan 420.0000 -420.0000 nan 200.00%
0 0 56.1710 16 420.0000 56.1710 111 86.63%
0+ 0 nan nan 105.5506 56.1710 nan 46.78%
0 0 56.1751 18 105.5506 Cuts:15 137 46.78%
0+ 0 nan nan 105.3044 56.1751 nan 46.65%
0 0 56.7200 20 105.3044 Cuts:12 147 46.14%
0+ 0 nan nan 79.4556 56.7200 nan 28.61%
0 0 57.0815 28 79.4556 Cuts:12 167 28.16%
0 0 57.2752 32 79.4556 Fract:15 188 27.92%
0 0 57.2887 30 79.4556 Cuts:3 195 27.90%
0 0 57.2906 30 79.4556 Fract:1 196 27.90%
0 0 57.2925 30 79.4556 Fract:1 197 27.89%
0+ 0 nan nan 75.1373 57.2925 nan 23.75%
0 2 57.2925 30 75.1373 57.2935 197 23.75%
CPXPARAM_MIP_Cuts_Gomory-Disjunctive-MIRCut:Gomory 1
CPXPARAM_MIP_Cuts_Gomory-Disjunctive-MIRCut:Disjunctive 27
CPXPARAM_MIP_Cuts_Gomory-Disjunctive-MIRCut:MIRCut 0
9
Node Left Objective IInf Best_Integer Best_Bound ItCnt Gap
0+ 0 nan nan 420.0000 -420.0000 nan 200.00%
0 0 0.0000 26 420.0000 0.0000 132 100.00%
0+ 0 nan nan 90.5377 0.0000 nan 100.00%
0 0 -0.0000 26 90.5377 Fract:2 136 100.00%
0+ 0 nan nan 69.6581 0.0000 nan 100.00%
0 0 0.0000 26 69.6581 Fract:7 166 100.00%
0+ 0 nan nan 67.5722 0.0000 nan 100.00%
0+ 0 nan nan 63.1412 0.0000 nan 100.00%
0+ 0 nan nan 57.3464 0.0000 nan 100.00%
0+ 0 nan nan 35.4213 0.0000 nan 100.00%
0 2 0.0000 25 35.4213 0.0000 166 100.00%
CPXPARAM_MIP_Cuts_Gomory-Disjunctive-MIRCut:Gomory 0
CPXPARAM_MIP_Cuts_Gomory-Disjunctive-MIRCut:Disjunctive 0
CPXPARAM_MIP_Cuts_Gomory-Disjunctive-MIRCut:MIRCut 0
10
Node Left Objective IInf Best_Integer Best_Bound ItCnt Gap
0+ 0 nan nan 570.0000 -570.0000 nan 200.00%
0 0 41.1710 16 570.0000 41.1710 125 92.78%
0+ 0 nan nan 102.1758 41.1710 nan 59.71%
0 0 41.1710 13 102.1758 Fract:4 136 59.71%
0+ 0 nan nan 99.0749 41.1710 nan 58.44%
0 0 41.3166 17 99.0749 Fract:13 162 58.30%
0 0 42.0849 20 99.0749 Fract:9 171 57.52%
0+ 0 nan nan 84.9732 42.0849 nan 50.47%
0 0 42.7644 24 84.9732 Fract:4 180 49.67%
0 0 42.9490 25 84.9732 Fract:3 185 49.46%
0 0 43.1127 25 84.9732 Fract:5 191 49.26%
0 0 43.2261 26 84.9732 Fract:1 195 49.13%
0 0 43.2606 27 84.9732 Fract:2 199 49.09%
0 0 43.4063 25 84.9732 Fract:1 206 48.92%
0 0 43.4441 26 84.9732 Fract:1 210 48.87%
0 0 43.5328 25 84.9732 Fract:1 215 48.77%
0+ 0 nan nan 76.5987 43.5328 nan 43.17%
0+ 0 nan nan 67.4373 43.5328 nan 35.45%
0 2 43.5328 25 67.4373 43.5558 215 35.41%
CPXPARAM_MIP_Cuts_Gomory-Disjunctive-MIRCut:Gomory 0
CPXPARAM_MIP_Cuts_Gomory-Disjunctive-MIRCut:Disjunctive 18
CPXPARAM_MIP_Cuts_Gomory-Disjunctive-MIRCut:MIRCut 0
11
Node Left Objective IInf Best_Integer Best_Bound ItCnt Gap
0+ 0 nan nan 450.0000 -450.0000 nan 200.00%
0 0 0.0000 22 450.0000 0.0000 134 100.00%
0+ 0 nan nan 71.7694 0.0000 nan 100.00%
0 0 0.0000 19 71.7694 Fract:3 142 100.00%
0+ 0 nan nan 20.3616 0.0000 nan 100.00%
0 0 0.0000 19 20.3616 Fract:3 175 100.00%
0 0 0.0000 20 20.3616 Fract:7 188 100.00%
0+ 0 nan nan 18.7386 0.0000 nan 100.00%
0+ 0 nan nan 17.9448 0.0000 nan 100.00%
0 2 0.0000 17 17.9448 0.0000 188 100.00%
CPXPARAM_MIP_Cuts_Gomory-Disjunctive-MIRCut:Gomory 0
CPXPARAM_MIP_Cuts_Gomory-Disjunctive-MIRCut:Disjunctive 0
CPXPARAM_MIP_Cuts_Gomory-Disjunctive-MIRCut:MIRCut 0
12
Node Left Objective IInf Best_Integer Best_Bound ItCnt Gap
0+ 0 nan nan 450.0000 -450.0000 nan 200.00%
0 0 34.1191 18 450.0000 34.1191 110 92.42%
0+ 0 nan nan 93.2111 34.1191 nan 63.40%
0 0 34.8908 18 93.2111 Fract:8 131 62.57%
0+ 0 nan nan 77.3444 34.8908 nan 54.89%
0 0 36.1727 24 77.3444 Fract:16 155 53.23%
0 0 36.3732 23 77.3444 Fract:7 168 52.97%
0 0 36.4357 24 77.3444 Fract:11 181 52.89%
0+ 0 nan nan 75.3838 36.4357 nan 51.67%
0 0 36.9030 24 75.3838 Fract:11 191 51.05%
0 0 36.9030 24 75.3838 Fract:1 192 51.05%
0 2 36.9030 24 75.3838 37.0137 192 50.90%
CPXPARAM_MIP_Cuts_Gomory-Disjunctive-MIRCut:Gomory 0
CPXPARAM_MIP_Cuts_Gomory-Disjunctive-MIRCut:Disjunctive 13
CPXPARAM_MIP_Cuts_Gomory-Disjunctive-MIRCut:MIRCut 0
13
Node Left Objective IInf Best_Integer Best_Bound ItCnt Gap
0+ 0 nan nan 390.0000 -390.0000 nan 200.00%
0 0 0.0000 26 390.0000 0.0000 142 100.00%
0+ 0 nan nan 72.2076 0.0000 nan 100.00%
0+ 0 nan nan 63.2676 0.0000 nan 100.00%
0+ 0 nan nan 54.5969 0.0000 nan 100.00%
0+ 0 nan nan 19.6266 0.0000 nan 100.00%
0 2 0.0000 25 19.6266 0.0000 142 100.00%
CPXPARAM_MIP_Cuts_Gomory-Disjunctive-MIRCut:Gomory 0
CPXPARAM_MIP_Cuts_Gomory-Disjunctive-MIRCut:Disjunctive 0
CPXPARAM_MIP_Cuts_Gomory-Disjunctive-MIRCut:MIRCut 0
14
Node Left Objective IInf Best_Integer Best_Bound ItCnt Gap
0+ 0 nan nan 480.0000 -480.0000 nan 200.00%
0 0 31.1191 15 480.0000 31.1191 124 93.52%
0+ 0 nan nan 61.8842 31.1191 nan 49.71%
0 0 31.1191 16 61.8842 Fract:5 146 49.71%
0 0 32.3208 24 61.8842 Fract:11 167 47.77%
0 0 33.0585 23 61.8842 Fract:5 175 46.58%
0 0 33.2619 21 61.8842 Fract:2 184 46.25%
0 0 33.7041 22 61.8842 Fract:5 199 45.54%
0 0 33.7041 23 61.8842 Fract:2 201 45.54%
0+ 0 nan nan 49.3597 33.7041 nan 31.72%
0 2 33.7041 23 49.3597 33.7091 201 31.71%
CPXPARAM_MIP_Cuts_Gomory-Disjunctive-MIRCut:Gomory 0
CPXPARAM_MIP_Cuts_Gomory-Disjunctive-MIRCut:Disjunctive 14
CPXPARAM_MIP_Cuts_Gomory-Disjunctive-MIRCut:MIRCut 0
15
Node Left Objective IInf Best_Integer Best_Bound ItCnt Gap
0+ 0 nan nan 420.0000 -420.0000 nan 200.00%
0 0 0.0000 22 420.0000 0.0000 127 100.00%
0+ 0 nan nan 46.8457 0.0000 nan 100.00%
0 0 0.0000 17 46.8457 Fract:3 132 100.00%
0+ 0 nan nan 32.2543 0.0000 nan 100.00%
0 0 0.0000 19 32.2543 Fract:15 159 100.00%
0+ 0 nan nan 28.1532 0.0000 nan 100.00%
0+ 0 nan nan 18.5192 0.0000 nan 100.00%
0 2 0.0000 17 18.5192 0.0000 159 100.00%
CPXPARAM_MIP_Cuts_Gomory-Disjunctive-MIRCut:Gomory 0
CPXPARAM_MIP_Cuts_Gomory-Disjunctive-MIRCut:Disjunctive 0
CPXPARAM_MIP_Cuts_Gomory-Disjunctive-MIRCut:MIRCut 0
16
Node Left Objective IInf Best_Integer Best_Bound ItCnt Gap
0+ 0 nan nan 450.0000 -450.0000 nan 200.00%
0 0 41.5886 16 450.0000 41.5886 100 90.76%
0+ 0 nan nan 98.3618 41.5886 nan 57.72%
0 0 41.7224 30 98.3618 Cuts:18 134 57.58%
0+ 0 nan nan 80.9600 41.7224 nan 48.47%
0 0 42.7246 30 80.9600 Fract:14 151 47.23%
0 0 43.1792 28 80.9600 Fract:6 171 46.67%
0 0 43.2067 26 80.9600 Fract:2 181 46.63%
0 0 43.2067 26 80.9600 Fract:3 185 46.63%
0 0 43.2510 29 80.9600 Fract:3 196 46.58%
0 0 43.2510 29 80.9600 Fract:1 197 46.58%
0+ 0 nan nan 74.2546 43.2510 nan 41.75%
0+ 0 nan nan 71.6368 43.2510 nan 39.62%
0 2 43.2510 27 71.6368 43.3866 197 39.44%
CPXPARAM_MIP_Cuts_Gomory-Disjunctive-MIRCut:Gomory 0
CPXPARAM_MIP_Cuts_Gomory-Disjunctive-MIRCut:Disjunctive 17
CPXPARAM_MIP_Cuts_Gomory-Disjunctive-MIRCut:MIRCut 0
17
Node Left Objective IInf Best_Integer Best_Bound ItCnt Gap
0+ 0 nan nan 360.0000 -360.0000 nan 200.00%
0 0 0.0000 23 360.0000 0.0000 120 100.00%
0+ 0 nan nan 42.0628 0.0000 nan 100.00%
0 0 0.0000 26 42.0628 Cuts:23 155 100.00%
0+ 0 nan nan 35.6037 0.0000 nan 100.00%
0 0 0.0000 25 35.6037 MIRcuts:1 158 100.00%
0+ 0 nan nan 27.8394 0.0000 nan 100.00%
0 2 0.0000 25 27.8394 0.0000 158 100.00%
CPXPARAM_MIP_Cuts_Gomory-Disjunctive-MIRCut:Gomory 1
CPXPARAM_MIP_Cuts_Gomory-Disjunctive-MIRCut:Disjunctive 1
CPXPARAM_MIP_Cuts_Gomory-Disjunctive-MIRCut:MIRCut 0
18
Node Left Objective IInf Best_Integer Best_Bound ItCnt Gap
0+ 0 nan nan 390.0000 -390.0000 nan 200.00%
0+ 0 nan nan 77.2939 -390.0000 nan 604.57%
0 0 47.5886 11 77.2939 47.5886 104 38.43%
0+ 0 nan nan 66.7840 47.5886 nan 28.74%
0 0 47.5886 10 66.7840 Fract:6 121 28.74%
0 0 48.0052 20 66.7840 Fract:8 147 28.12%
0 0 48.5119 20 66.7840 Fract:6 153 27.36%
0 0 48.7061 23 66.7840 Fract:4 162 27.07%
0 0 48.8353 22 66.7840 Fract:3 176 26.88%
0+ 0 nan nan 65.0828 48.8353 nan 24.96%
0 0 48.9204 23 65.0828 Fract:3 187 24.83%
0+ 0 nan nan 57.4840 48.9204 nan 14.90%
0 2 49.1745 15 57.4840 49.1839 187 14.44%
CPXPARAM_MIP_Cuts_Gomory-Disjunctive-MIRCut:Gomory 0
CPXPARAM_MIP_Cuts_Gomory-Disjunctive-MIRCut:Disjunctive 18
CPXPARAM_MIP_Cuts_Gomory-Disjunctive-MIRCut:MIRCut 0
19
Node Left Objective IInf Best_Integer Best_Bound ItCnt Gap
0+ 0 nan nan 390.0000 -390.0000 nan 200.00%
0+ 0 nan nan 77.2939 -390.0000 nan 604.57%
0 0 -0.0000 23 77.2939 -0.0000 112 100.00%
0 0 0.0000 18 77.2939 Fract:3 113 100.00%
0+ 0 nan nan 57.5958 0.0000 nan 100.00%
0 0 0.0000 22 57.5958 Fract:14 140 100.00%
0+ 0 nan nan 38.1029 0.0000 nan 100.00%
0 0 0.0000 20 38.1029 Fract:18 165 100.00%
0 2 0.0000 20 38.1029 0.0000 165 100.00%
CPXPARAM_MIP_Cuts_Gomory-Disjunctive-MIRCut:Gomory 0
CPXPARAM_MIP_Cuts_Gomory-Disjunctive-MIRCut:Disjunctive 3
CPXPARAM_MIP_Cuts_Gomory-Disjunctive-MIRCut:MIRCut 0
20
Node Left Objective IInf Best_Integer Best_Bound ItCnt Gap
0+ 0 nan nan 330.0000 -330.0000 nan 200.00%
0 0 25.2745 13 330.0000 25.2745 114 92.34%
0+ 0 nan nan 46.1855 25.2745 nan 45.28%
0 0 25.3724 21 46.1855 Fract:8 140 45.06%
0 0 25.7829 24 46.1855 Fract:10 162 44.18%
0+ 0 nan nan 44.5628 25.7829 nan 42.14%
0 0 26.0609 29 44.5628 Fract:17 189 41.52%
0 0 26.1281 29 44.5628 Fract:6 200 41.37%
0 0 26.1630 31 44.5628 Fract:4 211 41.29%
0 2 26.1630 31 44.5628 26.1647 211 41.29%
CPXPARAM_MIP_Cuts_Gomory-Disjunctive-MIRCut:Gomory 0
CPXPARAM_MIP_Cuts_Gomory-Disjunctive-MIRCut:Disjunctive 19
CPXPARAM_MIP_Cuts_Gomory-Disjunctive-MIRCut:MIRCut 0
21
Node Left Objective IInf Best_Integer Best_Bound ItCnt Gap
0+ 0 nan nan 330.0000 -330.0000 nan 200.00%
0 0 -0.0000 23 330.0000 -0.0000 137 100.00%
0+ 0 nan nan 25.9784 0.0000 nan 100.00%
0 0 0.0000 21 25.9784 Fract:1 142 100.00%
0+ 0 nan nan 20.4484 0.0000 nan 100.00%
0 0 0.0000 22 20.4484 Fract:20 174 100.00%
0 0 0.0000 19 20.4484 Fract:7 175 100.00%
0+ 0 nan nan 13.0460 0.0000 nan 100.00%
0 0 0.0000 21 13.0460 Fract:14 197 100.00%
0 2 0.0000 19 13.0460 0.0000 197 100.00%
CPXPARAM_MIP_Cuts_Gomory-Disjunctive-MIRCut:Gomory 0
CPXPARAM_MIP_Cuts_Gomory-Disjunctive-MIRCut:Disjunctive 1
CPXPARAM_MIP_Cuts_Gomory-Disjunctive-MIRCut:MIRCut 0
22
Node Left Objective IInf Best_Integer Best_Bound ItCnt Gap
0+ 0 nan nan 330.0000 -330.0000 nan 200.00%
0 0 25.2745 9 330.0000 25.2745 107 92.34%
0+ 0 nan nan 32.2062 25.2745 nan 21.52%
0 0 25.3775 23 32.2062 Fract:8 133 21.20%
0 0 25.8840 21 32.2062 Fract:4 148 19.63%
0 0 26.0711 20 32.2062 Fract:4 156 19.05%
0 0 26.2540 20 32.2062 Fract:2 165 18.48%
0 0 26.2800 22 32.2062 Fract:2 168 18.40%
0+ 0 nan nan 31.3917 26.2800 nan 16.28%
0+ 0 nan nan 30.8773 26.2800 nan 14.89%
0+ 0 nan nan 30.7117 26.2800 nan 14.43%
0+ 0 nan nan 30.7117 26.2800 nan 14.43%
0 0 26.4704 9 30.7117 26.4704 263 13.81%
0+ 0 nan nan 28.5540 26.4704 nan 7.30%
0 2 26.6864 6 28.5540 26.7824 263 6.20%
CPXPARAM_MIP_Cuts_Gomory-Disjunctive-MIRCut:Gomory 0
CPXPARAM_MIP_Cuts_Gomory-Disjunctive-MIRCut:Disjunctive 9
CPXPARAM_MIP_Cuts_Gomory-Disjunctive-MIRCut:MIRCut 0
23
Node Left Objective IInf Best_Integer Best_Bound ItCnt Gap
0+ 0 nan nan 330.0000 -330.0000 nan 200.00%
0 0 -0.0000 18 330.0000 -0.0000 129 100.00%
0+ 0 nan nan 25.8557 -0.0000 nan 100.00%
0+ 0 nan nan 10.8551 0.0000 nan 100.00%
0 0 0.0000 16 10.8551 Fract:1 137 100.00%
0 0 0.0000 14 10.8551 Fract:11 151 100.00%
0+ 0 nan nan 9.5038 0.0000 nan 100.00%
0 0 0.0000 17 9.5038 Fract:8 173 100.00%
0 0 0.0000 16 9.5038 Fract:5 184 100.00%
0+ 0 nan nan 7.8101 0.0000 nan 100.00%
0 2 0.0000 14 7.8101 0.0000 184 100.00%
CPXPARAM_MIP_Cuts_Gomory-Disjunctive-MIRCut:Gomory 0
CPXPARAM_MIP_Cuts_Gomory-Disjunctive-MIRCut:Disjunctive 0
CPXPARAM_MIP_Cuts_Gomory-Disjunctive-MIRCut:MIRCut 0
24
Node Left Objective IInf Best_Integer Best_Bound ItCnt Gap
0+ 0 nan nan 390.0000 -390.0000 nan 200.00%
0 0 29.8402 18 390.0000 29.8402 113 92.35%
0+ 0 nan nan 53.3075 29.8402 nan 44.02%
0 0 29.9208 29 53.3075 Fract:12 156 43.87%
0 0 29.9263 29 53.3075 Fract:2 159 43.86%
0+ 0 nan nan 52.2638 29.9263 nan 42.74%
0 0 30.7298 26 52.2638 Fract:4 174 41.20%
0 0 31.2056 29 52.2638 Fract:16 200 40.29%
0 0 31.2056 30 52.2638 Fract:4 205 40.29%
0 0 31.2062 31 52.2638 Fract:3 212 40.29%
0 2 31.2062 31 52.2638 31.2646 212 40.18%
CPXPARAM_MIP_Cuts_Gomory-Disjunctive-MIRCut:Gomory 0
CPXPARAM_MIP_Cuts_Gomory-Disjunctive-MIRCut:Disjunctive 14
CPXPARAM_MIP_Cuts_Gomory-Disjunctive-MIRCut:MIRCut 0
25
Node Left Objective IInf Best_Integer Best_Bound ItCnt Gap
0+ 0 nan nan 390.0000 -390.0000 nan 200.00%
0 0 0.0000 26 390.0000 0.0000 121 100.00%
0+ 0 nan nan 29.0852 0.0000 nan 100.00%
0 0 0.0000 21 29.0852 Fract:2 129 100.00%
0 0 0.0000 20 29.0852 Cuts:11 148 100.00%
0 0 0.0000 20 29.0852 Fract:12 174 100.00%
0+ 0 nan nan 26.0732 0.0000 nan 100.00%
0+ 0 nan nan 24.1601 0.0000 nan 100.00%
0 2 0.0000 19 24.1601 0.0000 174 100.00%
CPXPARAM_MIP_Cuts_Gomory-Disjunctive-MIRCut:Gomory 0
CPXPARAM_MIP_Cuts_Gomory-Disjunctive-MIRCut:Disjunctive 0
CPXPARAM_MIP_Cuts_Gomory-Disjunctive-MIRCut:MIRCut 0
26
Node Left Objective IInf Best_Integer Best_Bound ItCnt Gap
0+ 0 nan nan 390.0000 -390.0000 nan 200.00%
0 0 29.8490 14 390.0000 29.8490 117 92.35%
0+ 0 nan nan 39.1730 29.8490 nan 23.80%
0 0 29.8490 20 39.1730 Fract:3 138 23.80%
0 0 30.7488 24 39.1730 Fract:9 167 21.50%
0 0 31.8038 25 39.1730 Fract:10 181 18.81%
0 0 32.3170 23 39.1730 Cuts:3 192 17.50%
0 0 32.4115 24 39.1730 Fract:5 206 17.26%
0 0 32.5334 24 39.1730 Fract:2 222 16.95%
0 0 32.5563 24 39.1730 Fract:1 228 16.89%
0+ 0 nan nan 38.6911 32.5563 nan 15.86%
0+ 0 nan nan 38.4393 32.5563 nan 15.30%
0 2 32.9068 10 38.4393 32.9178 228 14.36%
CPXPARAM_MIP_Cuts_Gomory-Disjunctive-MIRCut:Gomory 0
CPXPARAM_MIP_Cuts_Gomory-Disjunctive-MIRCut:Disjunctive 12
CPXPARAM_MIP_Cuts_Gomory-Disjunctive-MIRCut:MIRCut 0
27
Node Left Objective IInf Best_Integer Best_Bound ItCnt Gap
0+ 0 nan nan 360.0000 -360.0000 nan 200.00%
0 0 -0.0000 21 360.0000 -0.0000 122 100.00%
0+ 0 nan nan 72.0000 -0.0000 nan 100.00%
0+ 0 nan nan 17.6195 0.0000 nan 100.00%
0 0 0.0000 14 17.6195 Fract:2 124 100.00%
0 0 0.0000 17 17.6195 Fract:12 168 100.00%
0+ 0 nan nan 9.0869 0.0000 nan 100.00%
0+ 0 nan nan 5.5727 0.0000 nan 100.00%
0 2 0.0000 16 5.5727 0.0000 168 100.00%
CPXPARAM_MIP_Cuts_Gomory-Disjunctive-MIRCut:Gomory 0
CPXPARAM_MIP_Cuts_Gomory-Disjunctive-MIRCut:Disjunctive 0
CPXPARAM_MIP_Cuts_Gomory-Disjunctive-MIRCut:MIRCut 0
28
Node Left Objective IInf Best_Integer Best_Bound ItCnt Gap
0+ 0 nan nan 480.0000 -480.0000 nan 200.00%
0 0 56.4662 14 480.0000 56.4662 102 88.24%
0+ 0 nan nan 85.1204 56.4662 nan 33.66%
0 0 56.7328 20 85.1204 Fract:10 130 33.35%
0 0 57.2523 32 85.1204 Fract:14 165 32.74%
0+ 0 nan nan 78.2406 57.2523 nan 26.83%
0 0 57.7833 31 78.2406 Fract:3 177 26.15%
0 0 58.2939 27 78.2406 Fract:5 190 25.49%
0 0 58.4718 29 78.2406 Fract:6 206 25.27%
0 0 58.6141 29 78.2406 Fract:5 217 25.08%
0 0 58.7365 28 78.2406 Fract:2 231 24.93%
0 2 58.7365 28 78.2406 58.7447 231 24.92%
CPXPARAM_MIP_Cuts_Gomory-Disjunctive-MIRCut:Gomory 0
CPXPARAM_MIP_Cuts_Gomory-Disjunctive-MIRCut:Disjunctive 12
CPXPARAM_MIP_Cuts_Gomory-Disjunctive-MIRCut:MIRCut 0
29
Node Left Objective IInf Best_Integer Best_Bound ItCnt Gap
0+ 0 nan nan 390.0000 -390.0000 nan 200.00%
0 0 0.0000 26 390.0000 0.0000 116 100.00%
0+ 0 nan nan 28.0451 0.0000 nan 100.00%
0 0 0.0000 23 28.0451 Cuts:10 129 100.00%
0 0 0.0000 25 28.0451 Cuts:21 176 100.00%
0+ 0 nan nan 27.2189 0.0000 nan 100.00%
0 0 0.0000 25 27.2189 Fract:22 216 100.00%
0+ 0 nan nan 24.3522 0.0000 nan 100.00%
0 2 0.0000 25 24.3522 0.0000 216 100.00%
CPXPARAM_MIP_Cuts_Gomory-Disjunctive-MIRCut:Gomory 0
CPXPARAM_MIP_Cuts_Gomory-Disjunctive-MIRCut:Disjunctive 6
CPXPARAM_MIP_Cuts_Gomory-Disjunctive-MIRCut:MIRCut 0
30
Node Left Objective IInf Best_Integer Best_Bound ItCnt Gap
0+ 0 nan nan 420.0000 -420.0000 nan 200.00%
0 0 62.4662 9 420.0000 62.4662 108 85.13%
0+ 0 nan nan 73.8536 62.4662 nan 15.42%
0 0 62.4662 14 73.8536 Fract:7 131 15.42%
0+ 0 nan nan 71.4859 62.4662 nan 12.62%
0 0 62.5322 21 71.4859 Fract:4 162 12.53%
0 0 63.2377 22 71.4859 Fract:4 174 11.54%
0 0 63.5224 23 71.4859 Fract:4 182 11.14%
0 0 63.7325 24 71.4859 Fract:3 191 10.85%
0 0 63.8495 20 71.4859 Fract:2 199 10.68%
0+ 0 nan nan 70.4314 63.8495 nan 9.35%
0 2 64.0111 15 70.4314 64.1156 199 8.97%
CPXPARAM_MIP_Cuts_Gomory-Disjunctive-MIRCut:Gomory 0
CPXPARAM_MIP_Cuts_Gomory-Disjunctive-MIRCut:Disjunctive 10
CPXPARAM_MIP_Cuts_Gomory-Disjunctive-MIRCut:MIRCut 0
31
Node Left Objective IInf Best_Integer Best_Bound ItCnt Gap
0+ 0 nan nan 420.0000 -420.0000 nan 200.00%
0 0 -0.0000 21 420.0000 -0.0000 121 100.00%
0+ 0 nan nan 10.9948 0.0000 nan 100.00%
0 0 0.0000 17 10.9948 Fract:11 134 100.00%
0 0 0.0000 21 10.9948 Fract:16 157 100.00%
0 0 0.0000 18 10.9948 Fract:6 172 100.00%
0 0 0.0000 20 10.9948 Fract:14 210 100.00%
0+ 0 nan nan 8.0784 0.0000 nan 100.00%
0 2 0.0000 19 8.0784 0.0000 210 100.00%
CPXPARAM_MIP_Cuts_Gomory-Disjunctive-MIRCut:Gomory 0
CPXPARAM_MIP_Cuts_Gomory-Disjunctive-MIRCut:Disjunctive 3
CPXPARAM_MIP_Cuts_Gomory-Disjunctive-MIRCut:MIRCut 0
32
Node Left Objective IInf Best_Integer Best_Bound ItCnt Gap
0+ 0 nan nan 300.0000 -300.0000 nan 200.00%
0 0 38.5476 15 300.0000 38.5476 115 87.15%
0+ 0 nan nan 76.5635 38.5476 nan 49.65%
0 0 38.6598 20 76.5635 Fract:8 144 49.51%
0 0 39.2065 21 76.5635 Fract:14 161 48.79%
0+ 0 nan nan 57.3533 39.2065 nan 31.64%
0 0 39.3649 28 57.3533 Fract:14 179 31.36%
0 0 39.4690 25 57.3533 Fract:8 188 31.18%
0+ 0 nan nan 56.0588 39.4690 nan 29.59%
0 0 39.4937 27 56.0588 Fract:10 196 29.55%
0 0 39.5017 29 56.0588 Fract:6 202 29.54%
0 2 39.5017 29 56.0588 39.5038 202 29.53%
CPXPARAM_MIP_Cuts_Gomory-Disjunctive-MIRCut:Gomory 0
CPXPARAM_MIP_Cuts_Gomory-Disjunctive-MIRCut:Disjunctive 19
CPXPARAM_MIP_Cuts_Gomory-Disjunctive-MIRCut:MIRCut 0
33
Node Left Objective IInf Best_Integer Best_Bound ItCnt Gap
0+ 0 nan nan 360.0000 -360.0000 nan 200.00%
0 0 0.0000 23 360.0000 0.0000 119 100.00%
0+ 0 nan nan 42.6820 0.0000 nan 100.00%
0 0 0.0000 21 42.6820 Cuts:3 125 100.00%
0+ 0 nan nan 23.1650 0.0000 nan 100.00%
0 0 0.0000 20 23.1650 Fract:3 136 100.00%
0 0 0.0000 21 23.1650 Fract:14 166 100.00%
0 2 0.0000 20 23.1650 0.0000 166 100.00%
CPXPARAM_MIP_Cuts_Gomory-Disjunctive-MIRCut:Gomory 0
CPXPARAM_MIP_Cuts_Gomory-Disjunctive-MIRCut:Disjunctive 1
CPXPARAM_MIP_Cuts_Gomory-Disjunctive-MIRCut:MIRCut 0
34
Node Left Objective IInf Best_Integer Best_Bound ItCnt Gap
0+ 0 nan nan 390.0000 -390.0000 nan 200.00%
0 0 29.4698 12 390.0000 29.4698 119 92.44%
0+ 0 nan nan 53.3914 29.4698 nan 44.80%
0 0 29.4698 17 53.3914 Fract:4 143 44.80%
0 0 30.3232 22 53.3914 Fract:10 166 43.21%
0 0 30.7549 23 53.3914 Fract:6 178 42.40%
0 0 31.0827 24 53.3914 Fract:3 189 41.78%
0 0 31.2969 24 53.3914 Fract:4 199 41.38%
0 0 31.4622 26 53.3914 Fract:6 209 41.07%
0 0 31.5613 22 53.3914 Fract:2 223 40.89%
0 0 31.6010 24 53.3914 Fract:2 232 40.81%
0+ 0 nan nan 42.7992 31.6010 nan 26.16%
0 2 31.6010 24 42.7992 31.6336 232 26.09%
CPXPARAM_MIP_Cuts_Gomory-Disjunctive-MIRCut:Gomory 0
CPXPARAM_MIP_Cuts_Gomory-Disjunctive-MIRCut:Disjunctive 13
CPXPARAM_MIP_Cuts_Gomory-Disjunctive-MIRCut:MIRCut 0
35
Node Left Objective IInf Best_Integer Best_Bound ItCnt Gap
0+ 0 nan nan 360.0000 -360.0000 nan 200.00%
0 0 0.0000 19 360.0000 0.0000 124 100.00%
0+ 0 nan nan 55.4328 0.0000 nan 100.00%
0+ 0 nan nan 43.7480 0.0000 nan 100.00%
0 0 0.0000 16 43.7480 Fract:4 127 100.00%
0+ 0 nan nan 39.8571 0.0000 nan 100.00%
0+ 0 nan nan 27.2787 0.0000 nan 100.00%
0 0 0.0000 19 27.2787 Fract:16 161 100.00%
0 0 0.0000 14 27.2787 Fract:1 162 100.00%
0+ 0 nan nan 20.7350 0.0000 nan 100.00%
0 0 0.0000 16 20.7350 Fract:11 199 100.00%
0+ 0 nan nan 12.9071 0.0000 nan 100.00%
0+ 0 nan nan 11.2757 0.0000 nan 100.00%
0 2 0.0000 15 11.2757 0.0000 199 100.00%
CPXPARAM_MIP_Cuts_Gomory-Disjunctive-MIRCut:Gomory 0
CPXPARAM_MIP_Cuts_Gomory-Disjunctive-MIRCut:Disjunctive 1
CPXPARAM_MIP_Cuts_Gomory-Disjunctive-MIRCut:MIRCut 0
36
Node Left Objective IInf Best_Integer Best_Bound ItCnt Gap
0+ 0 nan nan 480.0000 -480.0000 nan 200.00%
0 0 33.0392 15 480.0000 33.0392 116 93.12%
0+ 0 nan nan 67.3593 33.0392 nan 50.95%
0 0 33.0596 25 67.3593 Cuts:14 148 50.92%
0+ 0 nan nan 65.3248 33.0596 nan 49.39%
0 0 33.9351 29 65.3248 Fract:18 172 48.05%
0 0 34.1521 31 65.3248 Fract:6 184 47.72%
0 0 34.3161 30 65.3248 Fract:4 196 47.47%
0 0 34.6547 28 65.3248 Fract:3 211 46.95%
0 0 34.7084 28 65.3248 Fract:1 216 46.87%
0 2 34.7084 28 65.3248 34.8341 216 46.68%
CPXPARAM_MIP_Cuts_Gomory-Disjunctive-MIRCut:Gomory 0
CPXPARAM_MIP_Cuts_Gomory-Disjunctive-MIRCut:Disjunctive 10
CPXPARAM_MIP_Cuts_Gomory-Disjunctive-MIRCut:MIRCut 0
37
Node Left Objective IInf Best_Integer Best_Bound ItCnt Gap
0+ 0 nan nan 450.0000 -450.0000 nan 200.00%
0 0 0.0000 25 450.0000 0.0000 124 100.00%
0+ 0 nan nan 57.0719 0.0000 nan 100.00%
0 0 0.0000 20 57.0719 MIRcuts:1 125 100.00%
0+ 0 nan nan 43.4804 0.0000 nan 100.00%
0 0 0.0000 20 43.4804 Cuts:14 155 100.00%
0+ 0 nan nan 40.5390 0.0000 nan 100.00%
0 0 0.0000 21 40.5390 Cuts:17 181 100.00%
0+ 0 nan nan 33.1428 0.0000 nan 100.00%
0+ 0 nan nan 31.7424 0.0000 nan 100.00%
0+ 0 nan nan 18.0467 0.0000 nan 100.00%
0 2 0.0000 20 18.0467 0.0000 181 100.00%
CPXPARAM_MIP_Cuts_Gomory-Disjunctive-MIRCut:Gomory 0
CPXPARAM_MIP_Cuts_Gomory-Disjunctive-MIRCut:Disjunctive 1
CPXPARAM_MIP_Cuts_Gomory-Disjunctive-MIRCut:MIRCut 0
38
Node Left Objective IInf Best_Integer Best_Bound ItCnt Gap
0+ 0 nan nan 390.0000 -390.0000 nan 200.00%
0 0 42.0392 11 390.0000 42.0392 104 89.22%
0+ 0 nan nan 53.2610 42.0392 nan 21.07%
0 0 42.0392 12 53.2610 Fract:3 117 21.07%
0 0 42.3829 23 53.2610 Fract:10 145 20.42%
0 0 42.4907 21 53.2610 Fract:2 151 20.22%
0 0 42.7913 21 53.2610 Fract:6 162 19.66%
0 0 42.8653 24 53.2610 Fract:3 169 19.52%
0 0 42.9167 23 53.2610 Fract:3 173 19.42%
0 0 42.9167 23 53.2610 Fract:1 174 19.42%
0 2 43.0133 16 53.2610 43.0308 174 19.21%
CPXPARAM_MIP_Cuts_Gomory-Disjunctive-MIRCut:Gomory 0
CPXPARAM_MIP_Cuts_Gomory-Disjunctive-MIRCut:Disjunctive 16
CPXPARAM_MIP_Cuts_Gomory-Disjunctive-MIRCut:MIRCut 0
39
Node Left Objective IInf Best_Integer Best_Bound ItCnt Gap
0+ 0 nan nan 480.0000 -480.0000 nan 200.00%
0 0 0.0000 23 480.0000 0.0000 130 100.00%
0+ 0 nan nan 44.0554 0.0000 nan 100.00%
0+ 0 nan nan 22.8245 0.0000 nan 100.00%
0+ 0 nan nan 22.1812 0.0000 nan 100.00%
0+ 0 nan nan 19.2391 0.0000 nan 100.00%
0 2 0.0000 15 19.2391 0.0000 130 100.00%
CPXPARAM_MIP_Cuts_Gomory-Disjunctive-MIRCut:Gomory 0
CPXPARAM_MIP_Cuts_Gomory-Disjunctive-MIRCut:Disjunctive 0
CPXPARAM_MIP_Cuts_Gomory-Disjunctive-MIRCut:MIRCut 0
